File : Instances/p71
Used 69s
26747

0 0 1 0 1 0 0 0 1 0 1 0 1 0 0 0 1 1 1 1 0 0 0 1 1 1 0 0 0 0 
18 19 2 24 2 12 16 17 18 17 4 17 10 23 19 18 23 10 16 24 18 16 2 24 10 18 24 19 4 2 19 19 4 16 18 12 8 8 24 16 18 8 12 4 8 19 8 2 19 10 24 16 24 16 8 12 25 8 18 25 4 2 25 8 8 12 23 19 19 25 18 12 19 8 23 23 10 10 8 16 10 17 8 25 4 10 19 2 24 25 17 19 25 25 2 8 18 12 17 17 17 16 25 18 4 2 4 24 16 8 19 4 18 12 12 8 19 25 17 8 8 25 17 19 4 16 2 12 19 17 17 24 25 10 23 8 23 8 17 10 12 18 12 25 25 2 24 16 18 25 24 17 23 17 8 12 2 16 8 8 23 24 10 24 23 18 23 4 23 2 23 8 19 10 4 2 24 10 4 10 2 16 2 19 12 8 12 23 17 16 2 2 19 4 25 12 25 2 10 19 
